unsat
(:conflicts            1
 :max-generation       1
 :max-memory           23.79
 :memory               21.39
 :mk-bool-var          1218
 :mk-clause            104
 :mk-clause-binary     406
 :num-allocs           11379985
 :num-checks           1
 :quant-instantiations 138
 :rlimit-count         213588
 :time                 0.03)
